{'code': [17, 11, 4, 4, 9, 11, 15, 18, 4, 6, 12, 5, 10, 2, 8, 7, 1, 2, 18, 8, 19, 3, 8, 17, 5, 2, 16
, 18, 3, 8, 6, 13, 8, 14, 13, 4, 9, 18, 7, 18, 0, 1, 11, 15, 13, 1, 14, 14, 4, 16, 7, 13, 0, 9, 18, 
10, 14, 18, 9, 8, 16, 10, 10, 12, 4, 18, 7, 12, 10, 15, 0, 3, 8, 1, 2, 8, 9, 12, 11, 14, 11, 10, 5, 
0, 7, 7, 5, 4, 5, 5, 0, 7, 4, 12, 6, 9, 13, 12, 19, 15, 13, 13, 19, 16, 5, 7, 8, 7, 19, 19, 19, 14, 
0, 13, 3, 15, 2, 1, 6, 2, 15, 8, 2, 14, 8, 3, 15, 15, 6, 11, 0, 12, 11, 17, 7, 7, 9, 10, 6, 16, 12, 
16, 18, 1, 11, 10, 11, 6, 5, 2, 19, 14, 1, 10, 3, 0, 16, 16, 7, 6, 1, 14, 5, 15, 6, 0, 10, 9, 5, 1, 
17, 17, 15, 1, 4, 18, 0, 17, 0, 0, 11, 2, 3, 4, 17, 16, 6, 13, 9, 18, 16, 15, 6, 3, 19, 14, 9, 9, 6,
 18, 14, 4, 19, 3, 11, 4, 2, 19, 3, 17, 16, 19, 6, 1, 16, 4, 7, 17, 4, 13, 6, 15, 9, 12, 17, 12, 17,
 16, 3, 2, 19, 12, 18, 15, 14, 15, 5, 19, 1, 1], 'route': None, 'mac': [[1, 7, 7, 0, 1, 8, 6, 4, 8, 
3, 1, 3], [7, 4, 1, 4, 2, 5, 5, 0, 2, 0, 3, 3, 8], [6, 4, 1, 0, 5, 3, 0, 0, 4, 2, 2], [5, 0, 0, 7, 3
, 7, 3, 4, 2, 6, 0], [7, 3, 4, 4, 3, 9, 6, 7, 4, 9, 8, 4, 9, 4], [9, 9, 0, 2, 4, 3, 7, 7, 1, 6, 8], 
[7, 7, 4, 3, 0, 1, 1, 3, 8, 8, 5, 6, 6, 9], [0, 4, 4, 3, 8, 1, 1, 1, 1, 6, 1, 2, 4], [7, 1, 0, 3, 4,
 6, 1, 8, 8, 0, 4], [3, 8, 2, 6, 8, 5, 4, 6, 1, 2, 0, 0], [8, 4, 5, 3, 0, 4, 6, 2, 0, 2], [4, 0, 3, 
8, 6, 2, 1, 7, 3, 4, 1], [1, 2, 8, 4, 9, 3, 0, 7, 0, 0, 6], [4, 0, 9, 1, 6, 0, 3, 2, 6, 2], [0, 0, 1
, 5, 4, 8, 1, 9, 3, 2, 0, 6], [7, 8, 2, 8, 7, 6, 6, 1, 0, 1, 3, 4, 4, 4], [5, 8, 6, 7, 4, 4, 0, 5, 0
, 9, 2, 2, 0], [1, 8, 4, 9, 2, 4, 8, 0, 1, 7, 5], [2, 1, 6, 9, 2, 0, 3, 1, 9, 4, 1, 6, 4], [6, 6, 5,
 2, 4, 8, 4, 0, 7, 8, 1, 1, 1]], 'wok': None}
